; Copyright (c) 2026 The RIINA Authors. All rights reserved.
; Auto-generated from 02_FORMAL/coq/domains/uiux/Transitions.v (30 validations)
; Generated by scripts/generate-full-stack.py
;
; Translation Validation for Transitions
; Layer 9: Verifies compiler backend preserves formal semantics.
; Each assertion checks source IR ≡ target code for a proven property.

(set-logic QF_LIA)
(set-option :produce-models true)

; IR node representation
(declare-sort IRNode 0)
(declare-sort TargetNode 0)

; lerp_position: source semantics (matches Coq)
(declare-fun source_lerp_position () Bool)
(declare-fun target_lerp_position () Bool)
(assert (= source_lerp_position target_lerp_position))

; current_position: source semantics (matches Coq)
(declare-fun source_current_position () Bool)
(declare-fun target_current_position () Bool)
(assert (= source_current_position target_current_position))

; lerp: source semantics (matches Coq)
(declare-fun source_lerp () Bool)
(declare-fun target_lerp () Bool)
(assert (= source_lerp target_lerp))

; shared_element_at_zero_is_source: translation preserves property (matches Coq: Theorem)
(declare-fun source_shared_element_at_zero_is_source () Bool)
(declare-fun target_shared_element_at_zero_is_source () Bool)
(assert (= source_shared_element_at_zero_is_source target_shared_element_at_zero_is_source))

; shared_element_at_one_is_dest: translation preserves property (matches Coq: Theorem)
(declare-fun source_shared_element_at_one_is_dest () Bool)
(declare-fun target_shared_element_at_one_is_dest () Bool)
(assert (= source_shared_element_at_one_is_dest target_shared_element_at_one_is_dest))

; transition_context_preserved: translation preserves property (matches Coq: Theorem)
(declare-fun source_transition_context_preserved () Bool)
(declare-fun target_transition_context_preserved () Bool)
(assert (= source_transition_context_preserved target_transition_context_preserved))

; hero_element_always_matched: translation preserves property (matches Coq: Theorem)
(declare-fun source_hero_element_always_matched () Bool)
(declare-fun target_hero_element_always_matched () Bool)
(assert (= source_hero_element_always_matched target_hero_element_always_matched))

; lerp_monotonic_x: translation preserves property (matches Coq: Lemma)
(declare-fun source_lerp_monotonic_x () Bool)
(declare-fun target_lerp_monotonic_x () Bool)
(assert (= source_lerp_monotonic_x target_lerp_monotonic_x))

; progress_bounds_valid: translation preserves property (matches Coq: Lemma)
(declare-fun source_progress_bounds_valid () Bool)
(declare-fun target_progress_bounds_valid () Bool)
(assert (= source_progress_bounds_valid target_progress_bounds_valid))

; 1: translation preserves property (matches Coq: Theorem)
(declare-fun source_1 () Bool)
(declare-fun target_1 () Bool)
(assert (= source_1 target_1))

; 2: translation preserves property (matches Coq: Theorem)
(declare-fun source_2 () Bool)
(declare-fun target_2 () Bool)
(assert (= source_2 target_2))

; 3: translation preserves property (matches Coq: Theorem)
(declare-fun source_3 () Bool)
(declare-fun target_3 () Bool)
(assert (= source_3 target_3))

; 4: translation preserves property (matches Coq: Theorem)
(declare-fun source_4 () Bool)
(declare-fun target_4 () Bool)
(assert (= source_4 target_4))

; 5: translation preserves property (matches Coq: Theorem)
(declare-fun source_5 () Bool)
(declare-fun target_5 () Bool)
(assert (= source_5 target_5))

; 6: translation preserves property (matches Coq: Theorem)
(declare-fun source_6 () Bool)
(declare-fun target_6 () Bool)
(assert (= source_6 target_6))

; 7: translation preserves property (matches Coq: Theorem)
(declare-fun source_7 () Bool)
(declare-fun target_7 () Bool)
(assert (= source_7 target_7))

; 8: translation preserves property (matches Coq: Theorem)
(declare-fun source_8 () Bool)
(declare-fun target_8 () Bool)
(assert (= source_8 target_8))

; 9: translation preserves property (matches Coq: Theorem)
(declare-fun source_9 () Bool)
(declare-fun target_9 () Bool)
(assert (= source_9 target_9))

; 10: translation preserves property (matches Coq: Theorem)
(declare-fun source_10 () Bool)
(declare-fun target_10 () Bool)
(assert (= source_10 target_10))

; 11: translation preserves property (matches Coq: Theorem)
(declare-fun source_11 () Bool)
(declare-fun target_11 () Bool)
(assert (= source_11 target_11))

; z_index_assignable: translation preserves property (matches Coq: Theorem)
(declare-fun source_z_index_assignable () Bool)
(declare-fun target_z_index_assignable () Bool)
(assert (= source_z_index_assignable target_z_index_assignable))

; 12: translation preserves property (matches Coq: Theorem)
(declare-fun source_12 () Bool)
(declare-fun target_12 () Bool)
(assert (= source_12 target_12))

; transition_idle_zero: translation preserves property (matches Coq: Theorem)
(declare-fun source_transition_idle_zero () Bool)
(declare-fun target_transition_idle_zero () Bool)
(assert (= source_transition_idle_zero target_transition_idle_zero))

; 13: translation preserves property (matches Coq: Theorem)
(declare-fun source_13 () Bool)
(declare-fun target_13 () Bool)
(assert (= source_13 target_13))

; parallel_group_duration: translation preserves property (matches Coq: Theorem)
(declare-fun source_parallel_group_duration () Bool)
(declare-fun target_parallel_group_duration () Bool)
(assert (= source_parallel_group_duration target_parallel_group_duration))

; 14: translation preserves property (matches Coq: Theorem)
(declare-fun source_14 () Bool)
(declare-fun target_14 () Bool)
(assert (= source_14 target_14))

; easing_boundary_zero: translation preserves property (matches Coq: Theorem)
(declare-fun source_easing_boundary_zero () Bool)
(declare-fun target_easing_boundary_zero () Bool)
(assert (= source_easing_boundary_zero target_easing_boundary_zero))

; easing_boundary_one: translation preserves property (matches Coq: Theorem)
(declare-fun source_easing_boundary_one () Bool)
(declare-fun target_easing_boundary_one () Bool)
(assert (= source_easing_boundary_one target_easing_boundary_one))

; 15: translation preserves property (matches Coq: Theorem)
(declare-fun source_15 () Bool)
(declare-fun target_15 () Bool)
(assert (= source_15 target_15))

; lerp_at_zero: translation preserves property (matches Coq: Theorem)
(declare-fun source_lerp_at_zero () Bool)
(declare-fun target_lerp_at_zero () Bool)
(assert (= source_lerp_at_zero target_lerp_at_zero))

; lerp_at_one: translation preserves property (matches Coq: Theorem)
(declare-fun source_lerp_at_one () Bool)
(declare-fun target_lerp_at_one () Bool)
(assert (= source_lerp_at_one target_lerp_at_one))

; crossfade_outgoing_valid: translation preserves property (matches Coq: Theorem)
(declare-fun source_crossfade_outgoing_valid () Bool)
(declare-fun target_crossfade_outgoing_valid () Bool)
(assert (= source_crossfade_outgoing_valid target_crossfade_outgoing_valid))

; crossfade_incoming_valid: translation preserves property (matches Coq: Theorem)
(declare-fun source_crossfade_incoming_valid () Bool)
(declare-fun target_crossfade_incoming_valid () Bool)
(assert (= source_crossfade_incoming_valid target_crossfade_incoming_valid))

; Verify all translation validations are satisfiable
(check-sat)
(exit)
